40 137 5
0 14 1
0 15 1
0 17 1
0 18 1
0 23 1
0 27 1
0 37 1
0 38 1
1 2 1
1 3 1
1 9 1
1 10 1
1 25 1
1 27 1
1 37 1
2 6 1
2 7 1
2 14 1
2 15 1
2 19 1
2 21 1
2 25 1
2 30 1
2 31 1
3 4 1
3 7 1
3 8 1
3 11 1
3 14 1
3 17 1
3 18 1
3 25 1
3 33 1
4 12 1
4 15 1
4 26 1
4 30 1
4 38 1
4 39 1
5 7 1
5 18 1
5 24 1
5 26 1
5 27 1
5 34 1
5 38 1
6 8 1
6 9 1
6 10 1
6 12 1
6 17 1
6 23 1
7 8 1
7 13 1
7 16 1
7 20 1
7 25 1
7 31 1
8 15 1
8 16 1
8 18 1
8 28 1
8 38 1
9 17 1
9 22 1
9 25 1
9 28 1
9 29 1
9 32 1
9 38 1
9 39 1
10 16 1
10 17 1
10 29 1
10 30 1
10 32 1
10 35 1
11 22 1
11 25 1
11 36 1
11 38 1
12 20 1
12 27 1
12 34 1
13 18 1
13 20 1
13 28 1
13 31 1
13 34 1
14 15 1
14 26 1
14 29 1
15 16 1
15 25 1
15 27 1
15 29 1
16 18 1
16 23 1
16 32 1
16 36 1
17 30 1
18 25 1
18 35 1
18 37 1
19 25 1
19 31 1
19 32 1
19 39 1
20 26 1
20 27 1
20 28 1
21 22 1
21 35 1
21 37 1
22 26 1
22 36 1
24 26 1
25 32 1
25 33 1
25 34 1
26 35 1
27 32 1
27 36 1
27 37 1
28 32 1
28 35 1
29 32 1
29 33 1
30 34 1
31 35 1
32 33 1
32 37 1
32 38 1
33 37 1
34 38 1
37 39 1
38 39 1
5 14 28 36 39